c Random 3-CNF over 20 variables and 80 clauses
c Generated with `cnfgen`
c (C) 2012-2016 Massimo Lauria <lauria.massimo@gmail.com>
c https://massimolauria.github.io/cnfgen
c
c COMMAND LINE: cnfgen --output tmp-3-20-80.dimacs --output-format dimacs randkcnf 3 20 80
c
c sdimacs generated by gen-sdimacs
c
p cnf 20 80
r 0.5 1 2 3 4 5 6 7 8 9 10 0
e  11 12 13 14 15 16 17 18 19 20 0
3 -10 19 0
-3 10 16 0
3 -5 -8 0
5 -8 13 0
3 4 14 0
12 17 19 0
-3 -6 16 0
-2 -6 16 0
-9 -16 20 0
3 -9 18 0
-12 13 -20 0
-5 -11 -14 0
-7 15 -16 0
-12 17 -19 0
-3 -8 -13 0
-3 -7 -9 0
6 -7 -16 0
3 14 -20 0
-13 -14 -17 0
-8 11 12 0
-5 -7 15 0
8 12 19 0
5 -12 17 0
14 -15 -16 0
12 14 17 0
-9 -11 15 0
4 -13 14 0
5 10 14 0
3 -12 15 0
-2 -6 -19 0
-1 -4 8 0
4 6 -10 0
4 -5 -14 0
8 -9 12 0
6 -13 19 0
-9 13 -17 0
2 10 13 0
-4 9 20 0
-3 14 -18 0
-5 6 16 0
1 3 -12 0
2 -3 4 0
-10 12 16 0
4 11 14 0
-1 -4 9 0
3 -7 11 0
-1 -12 18 0
1 16 20 0
-7 -9 -17 0
-1 8 -14 0
-5 13 15 0
-2 -3 9 0
-5 7 -14 0
-5 16 18 0
-3 -18 19 0
1 10 12 0
-9 -11 -12 0
13 -16 18 0
-7 14 17 0
-6 -14 17 0
6 13 16 0
2 -12 -18 0
-1 -4 -20 0
-11 -17 -19 0
5 -7 -15 0
2 -17 -19 0
-6 16 -17 0
3 -15 -19 0
-1 -8 20 0
6 7 -11 0
-5 -10 11 0
6 19 20 0
5 10 -15 0
6 -12 -17 0
-3 4 -14 0
-5 -7 9 0
3 12 16 0
4 5 11 0
3 -8 11 0
18 -19 -20 0
